
Gurobi 9.5.1 (linux64) logging started Thu Jun  9 14:12:11 2022

Set parameter LogFile to value "../results/logs/log_socfb-Northeastern19_20_250_2022_06_09_13_11.log"
Gurobi Optimizer version 9.5.1 build v9.5.1rc2 (linux64)
Thread count: 8 physical cores, 8 logical processors, using up to 8 threads
Optimize a model with 807 rows, 27764 columns and 22924 nonzeros
Model fingerprint: 0xa100d09d
Variable types: 0 continuous, 27764 integer (27764 binary)
Coefficient statistics:
  Matrix range     [1e+00, 2e+01]
  Objective range  [1e+00, 1e+00]
  Bounds range     [1e+00, 1e+00]
  RHS range        [1e+00, 2e+02]
Found heuristic solution: objective 9771.0000000
Presolve removed 256 rows and 26719 columns
Presolve time: 0.02s
Presolved: 551 rows, 1045 columns, 3238 nonzeros
Variable types: 0 continuous, 1045 integer (887 binary)
Found heuristic solution: objective 9951.0000000

Root relaxation: objective 1.010516e+04, 496 iterations, 0.00 seconds (0.00 work units)

    Nodes    |    Current Node    |     Objective Bounds      |     Work
 Expl Unexpl |  Obj  Depth IntInf | Incumbent    BestBd   Gap | It/Node Time

     0     0 10105.1569    0  158 9951.00000 10105.1569  1.55%     -    0s
H    0     0                    10053.000000 10105.1569  0.52%     -    0s
H    0     0                    10054.000000 10105.1569  0.51%     -    0s
H    0     0                    10057.000000 10081.3940  0.24%     -    0s
     0     0 10081.3940    0  143 10057.0000 10081.3940  0.24%     -    0s
H    0     0                    10058.000000 10081.3940  0.23%     -    0s
     0     0 10079.6494    0  141 10058.0000 10079.6494  0.22%     -    0s
     0     0 10079.5210    0  131 10058.0000 10079.5210  0.21%     -    0s
     0     0 10079.5210    0  131 10058.0000 10079.5210  0.21%     -    0s
H    0     0                    10062.000000 10075.5809  0.13%     -    0s
     0     0 10075.4971    0  144 10062.0000 10075.4971  0.13%     -    0s
     0     0 10074.9522    0  126 10062.0000 10074.9522  0.13%     -    0s
     0     0 10074.7880    0  128 10062.0000 10074.7880  0.13%     -    0s
     0     0 10074.7793    0  126 10062.0000 10074.7793  0.13%     -    0s
H    0     0                    10064.000000 10074.7793  0.11%     -    0s
H    0     0                    10066.000000 10074.7793  0.09%     -    0s
H    0     0                    10067.000000 10074.7793  0.08%     -    0s
     0     0 10073.9634    0  103 10067.0000 10073.9634  0.07%     -    0s
H    0     0                    10069.000000 10073.9634  0.05%     -    0s
     0     0 10073.7130    0   96 10069.0000 10073.7130  0.05%     -    0s
     0     0 10073.6426    0   95 10069.0000 10073.6426  0.05%     -    0s
     0     0 10073.6296    0  101 10069.0000 10073.6296  0.05%     -    0s
     0     0 10073.2609    0  112 10069.0000 10073.2609  0.04%     -    0s
     0     0 10073.2075    0   81 10069.0000 10073.2075  0.04%     -    0s
     0     0 10073.1499    0   87 10069.0000 10073.1499  0.04%     -    0s
     0     0 10073.1382    0  106 10069.0000 10073.1382  0.04%     -    0s
     0     0 10073.0744    0   94 10069.0000 10073.0744  0.04%     -    0s
H    0     0                    10070.000000 10073.0744  0.03%     -    0s
H    0     0                    10071.000000 10073.0744  0.02%     -    0s
     0     0 10073.0584    0  101 10071.0000 10073.0584  0.02%     -    0s
     0     0 10072.9611    0   95 10071.0000 10072.9611  0.02%     -    0s
     0     0 10072.9611    0   85 10071.0000 10072.9611  0.02%     -    0s
     0     0 10072.8428    0  110 10071.0000 10072.8428  0.02%     -    0s
     0     0 10072.8428    0  106 10071.0000 10072.8428  0.02%     -    0s
     0     0 10072.8428    0  100 10071.0000 10072.8428  0.02%     -    0s
     0     0 10072.8428    0  102 10071.0000 10072.8428  0.02%     -    0s
     0     0 10072.8428    0   77 10071.0000 10072.8428  0.02%     -    0s
     0     0 10072.8428    0   77 10071.0000 10072.8428  0.02%     -    0s
     0     0 10072.8428    0   84 10071.0000 10072.8428  0.02%     -    0s
     0     0 10072.8428    0   81 10071.0000 10072.8428  0.02%     -    0s
     0     0 10072.8428    0   86 10071.0000 10072.8428  0.02%     -    0s
     0     0 10072.8388    0   62 10071.0000 10072.8388  0.02%     -    0s
     0     0 10072.7185    0   67 10071.0000 10072.7185  0.02%     -    0s
     0     0 10072.6822    0   69 10071.0000 10072.6822  0.02%     -    0s
     0     0 10072.6819    0   73 10071.0000 10072.6819  0.02%     -    0s
     0     0 10072.5655    0   65 10071.0000 10072.5655  0.02%     -    0s
     0     0 10072.5561    0   75 10071.0000 10072.5561  0.02%     -    0s
     0     0 10072.4942    0   80 10071.0000 10072.4942  0.01%     -    0s
     0     0 10072.3099    0   21 10071.0000 10072.3099  0.01%     -    0s
     0     0 10072.3099    0   21 10071.0000 10072.3099  0.01%     -    0s
     0     0 10072.3044    0   49 10071.0000 10072.3044  0.01%     -    0s
     0     0 10072.3044    0   52 10071.0000 10072.3044  0.01%     -    0s
     0     0 10072.3044    0   53 10071.0000 10072.3044  0.01%     -    0s
     0     0 10072.3044    0   48 10071.0000 10072.3044  0.01%     -    0s
     0     0 10072.3044    0   60 10071.0000 10072.3044  0.01%     -    0s
     0     0 10072.3044    0   48 10071.0000 10072.3044  0.01%     -    0s
     0     0 10072.3044    0   50 10071.0000 10072.3044  0.01%     -    0s
     0     0 10072.3044    0   56 10071.0000 10072.3044  0.01%     -    0s
     0     0 10072.3044    0   54 10071.0000 10072.3044  0.01%     -    0s
     0     0 10072.3044    0   51 10071.0000 10072.3044  0.01%     -    0s
     0     0 10072.3044    0   24 10071.0000 10072.3044  0.01%     -    0s
     0     0 10072.2959    0   20 10071.0000 10072.2959  0.01%     -    0s
     0     0 10072.2222    0   21 10071.0000 10072.2222  0.01%     -    0s
     0     0 10072.2222    0   21 10071.0000 10072.2222  0.01%     -    0s
H    0     0                    10072.000000 10072.2222  0.00%     -    0s

Cutting planes:
  Gomory: 31
  Lift-and-project: 2
  Cover: 1
  Implied bound: 3
  MIR: 36
  StrongCG: 2
  GUB cover: 11
  Zero half: 2
  Mod-K: 1
  RLT: 9
  Relax-and-lift: 3

Explored 1 nodes (3417 simplex iterations) in 0.52 seconds (0.24 work units)
Thread count was 8 (of 8 available processors)

Solution count 10: 10072 10071 10071 ... 10067

Optimal solution found (tolerance 0.00e+00)
Best objective 1.007200000000e+04, best bound 1.007200000000e+04, gap 0.0000%
